/* Objective function */
max: +2000 C1 +2500 C2 +5000 C3 +3500 C4 +2000 C5 +2500 C6 +5000 C7 +3500 C8 +2000 C9 +2500 C10 +5000 C11
 +3500 C12;

/* Constraints */
+C1 +C2 +C3 +C4 <= 10;
+C5 +C6 +C7 +C8 <= 8;
+C9 +C10 +C11 +C12 <= 12;
+400 C1 +300 C2 +200 C3 +500 C4 <= 5000;
+400 C5 +300 C6 +200 C7 +500 C8 <= 4000;
+400 C9 +300 C10 +200 C11 +500 C12 <= 8000;
+C1 +C5 +C9 <= 18;
+C2 +C6 +C10 <= 10;
+C3 +C7 +C11 <= 5;
+C4 +C8 +C12 <= 20;
